c generated by sgen
p cnf 121 252
-2 -3 -4 0
-1 -3 -4 0
-1 -2 -4 0
-1 -2 -3 0
-6 -7 -8 0
-5 -7 -8 0
-5 -6 -8 0
-5 -6 -7 0
-10 -11 -12 0
-9 -11 -12 0
-9 -10 -12 0
-9 -10 -11 0
-14 -15 -16 0
-13 -15 -16 0
-13 -14 -16 0
-13 -14 -15 0
-18 -19 -20 0
-17 -19 -20 0
-17 -18 -20 0
-17 -18 -19 0
-22 -23 -24 0
-21 -23 -24 0
-21 -22 -24 0
-21 -22 -23 0
-26 -27 -28 0
-25 -27 -28 0
-25 -26 -28 0
-25 -26 -27 0
-30 -31 -32 0
-29 -31 -32 0
-29 -30 -32 0
-29 -30 -31 0
-34 -35 -36 0
-33 -35 -36 0
-33 -34 -36 0
-33 -34 -35 0
-38 -39 -40 0
-37 -39 -40 0
-37 -38 -40 0
-37 -38 -39 0
-42 -43 -44 0
-41 -43 -44 0
-41 -42 -44 0
-41 -42 -43 0
-46 -47 -48 0
-45 -47 -48 0
-45 -46 -48 0
-45 -46 -47 0
-50 -51 -52 0
-49 -51 -52 0
-49 -50 -52 0
-49 -50 -51 0
-54 -55 -56 0
-53 -55 -56 0
-53 -54 -56 0
-53 -54 -55 0
-58 -59 -60 0
-57 -59 -60 0
-57 -58 -60 0
-57 -58 -59 0
-62 -63 -64 0
-61 -63 -64 0
-61 -62 -64 0
-61 -62 -63 0
-66 -67 -68 0
-65 -67 -68 0
-65 -66 -68 0
-65 -66 -67 0
-70 -71 -72 0
-69 -71 -72 0
-69 -70 -72 0
-69 -70 -71 0
-74 -75 -76 0
-73 -75 -76 0
-73 -74 -76 0
-73 -74 -75 0
-78 -79 -80 0
-77 -79 -80 0
-77 -78 -80 0
-77 -78 -79 0
-82 -83 -84 0
-81 -83 -84 0
-81 -82 -84 0
-81 -82 -83 0
-86 -87 -88 0
-85 -87 -88 0
-85 -86 -88 0
-85 -86 -87 0
-90 -91 -92 0
-89 -91 -92 0
-89 -90 -92 0
-89 -90 -91 0
-94 -95 -96 0
-93 -95 -96 0
-93 -94 -96 0
-93 -94 -95 0
-98 -99 -100 0
-97 -99 -100 0
-97 -98 -100 0
-97 -98 -99 0
-102 -103 -104 0
-101 -103 -104 0
-101 -102 -104 0
-101 -102 -103 0
-106 -107 -108 0
-105 -107 -108 0
-105 -106 -108 0
-105 -106 -107 0
-110 -111 -112 0
-109 -111 -112 0
-109 -110 -112 0
-109 -110 -111 0
-114 -115 -116 0
-113 -115 -116 0
-113 -114 -116 0
-113 -114 -115 0
-117 -118 -119 0
-117 -118 -120 0
-117 -118 -121 0
-117 -119 -120 0
-117 -119 -121 0
-117 -120 -121 0
-118 -119 -120 0
-118 -119 -121 0
-118 -120 -121 0
-119 -120 -121 0
45 29 8 0
26 29 8 0
26 45 8 0
26 45 29 0
60 3 44 0
33 3 44 0
33 60 44 0
33 60 3 0
4 109 89 0
55 109 89 0
55 4 89 0
55 4 109 0
43 78 70 0
28 78 70 0
28 43 70 0
28 43 78 0
77 17 46 0
1 17 46 0
1 77 46 0
1 77 17 0
54 105 97 0
73 105 97 0
73 54 97 0
73 54 105 0
16 118 81 0
37 118 81 0
37 16 81 0
37 16 118 0
79 52 113 0
24 52 113 0
24 79 113 0
24 79 52 0
48 82 23 0
61 82 23 0
61 48 23 0
61 48 82 0
106 117 7 0
19 117 7 0
19 106 7 0
19 106 117 0
25 114 18 0
38 114 18 0
38 25 18 0
38 25 114 0
87 34 80 0
74 34 80 0
74 87 80 0
74 87 34 0
9 20 15 0
98 20 15 0
98 9 15 0
98 9 20 0
108 22 14 0
59 22 14 0
59 108 14 0
59 108 22 0
21 67 119 0
35 67 119 0
35 21 119 0
35 21 67 0
56 36 62 0
31 36 62 0
31 56 62 0
31 56 36 0
120 86 102 0
94 86 102 0
94 120 102 0
94 120 86 0
101 2 10 0
116 2 10 0
116 101 10 0
116 101 2 0
75 110 83 0
32 110 83 0
32 75 83 0
32 75 110 0
88 30 13 0
51 30 13 0
51 88 13 0
51 88 30 0
99 103 69 0
40 103 69 0
40 99 69 0
40 99 103 0
90 63 104 0
27 63 104 0
27 90 104 0
27 90 63 0
121 92 71 0
57 92 71 0
57 121 71 0
57 121 92 0
95 42 91 0
6 42 91 0
6 95 91 0
6 95 42 0
65 72 47 0
85 72 47 0
85 65 47 0
85 65 72 0
76 68 39 0
93 68 39 0
93 76 39 0
93 76 68 0
84 50 58 0
53 50 58 0
53 84 58 0
53 84 50 0
64 49 12 0
96 49 12 0
96 64 12 0
96 64 49 0
41 11 107 0
111 11 107 0
111 41 107 0
111 41 11 0
112 5 100 0
112 5 115 0
112 5 66 0
112 100 115 0
112 100 66 0
112 115 66 0
5 100 115 0
5 100 66 0
5 115 66 0
100 115 66 0
